p tw 156 512
0 1
0 2
0 3
0 4
0 5
0 6
0 19
0 20
0 21
1 2
1 3
1 4
1 5
1 6
1 41
1 42
1 43
2 3
2 4
2 5
2 6
2 36
2 69
2 118
2 148
2 154
3 4
3 5
3 6
3 29
3 37
3 70
3 123
4 5
4 6
4 62
4 71
4 78
5 6
5 61
5 68
5 144
5 153
6 30
6 35
7 8
7 9
7 10
7 11
7 103
8 9
8 10
8 11
8 55
8 56
8 57
8 58
8 59
8 60
9 10
9 11
9 94
10 11
10 14
10 104
10 128
10 141
10 143
11 92
11 124
11 140
11 149
11 151
11 152
12 13
12 53
12 107
12 115
12 130
12 131
13 52
13 80
13 98
13 106
13 136
13 155
14 15
14 104
14 128
14 141
14 143
15 110
16 17
16 18
16 135
17 18
17 134
17 145
18 50
18 64
18 108
18 119
18 120
18 121
19 20
19 21
19 144
20 21
20 42
20 87
20 123
20 139
20 150
20 153
21 28
22 23
22 24
22 25
22 26
22 27
22 63
22 64
22 65
23 24
23 25
23 26
23 27
23 120
23 134
23 135
23 136
24 25
24 26
24 27
24 105
24 121
24 145
24 146
24 147
25 26
25 27
25 72
26 27
26 95
26 102
26 119
26 155
27 109
28 87
29 30
29 37
29 70
29 123
30 35
31 32
31 143
32 59
32 103
32 104
33 34
33 47
33 82
33 83
33 84
33 85
33 86
34 142
35 36
35 37
36 37
36 69
36 118
36 148
36 154
37 70
37 123
38 39
38 40
38 55
38 77
39 40
39 43
39 57
39 110
39 127
39 128
40 56
40 137
40 140
40 141
41 42
41 43
41 96
42 43
42 87
42 123
42 139
42 150
42 153
43 57
43 110
43 127
43 128
44 45
44 46
44 47
44 48
44 90
44 99
44 112
44 115
44 116
44 117
45 46
45 47
45 48
45 130
45 132
46 47
46 48
46 81
47 48
47 82
47 83
47 84
47 85
47 86
48 91
48 113
48 129
48 131
48 133
49 50
49 51
49 52
49 95
50 51
50 52
50 64
50 108
50 119
50 120
50 121
51 52
51 97
52 80
52 98
52 106
52 136
52 155
53 54
53 107
53 115
53 130
53 131
54 133
55 56
55 57
55 58
55 59
55 60
55 77
56 57
56 58
56 59
56 60
56 137
56 140
56 141
57 58
57 59
57 60
57 110
57 127
57 128
58 59
58 60
58 92
58 93
58 94
59 60
59 103
59 104
60 75
60 147
60 151
61 62
61 68
61 144
61 153
62 71
62 78
63 64
63 65
63 102
64 65
64 108
64 119
64 120
64 121
65 109
66 67
66 68
66 69
66 70
66 71
66 122
67 68
67 69
67 70
67 71
67 79
68 69
68 70
68 71
68 144
68 153
69 70
69 71
69 118
69 148
69 154
70 71
70 123
71 78
72 105
73 74
73 80
74 106
74 107
74 108
75 76
75 147
75 151
76 149
77 137
78 79
80 98
80 106
80 136
80 155
81 116
81 132
82 83
82 84
82 85
82 86
82 118
83 84
83 85
83 86
83 117
83 142
83 148
84 85
84 86
84 99
84 100
84 101
85 86
85 88
85 89
85 90
85 91
86 138
87 123
87 139
87 150
87 153
88 89
88 90
88 91
88 101
89 90
89 91
89 111
90 91
90 99
90 112
90 115
90 116
90 117
91 113
91 129
91 131
91 133
92 93
92 94
92 124
92 140
92 149
92 151
92 152
93 94
93 125
95 102
95 119
95 155
96 150
97 98
98 106
98 136
98 155
99 100
99 101
99 112
99 115
99 116
99 117
100 101
100 138
102 119
102 155
103 104
104 128
104 141
104 143
105 121
105 145
105 146
105 147
106 107
106 108
106 136
106 155
107 108
107 115
107 130
107 131
108 119
108 120
108 121
110 127
110 128
111 112
111 113
111 114
112 113
112 114
112 115
112 116
112 117
113 114
113 129
113 131
113 133
114 126
115 116
115 117
115 130
115 131
116 117
116 132
117 142
117 148
118 148
118 154
119 120
119 121
119 155
120 121
120 134
120 135
120 136
121 145
121 146
121 147
122 154
123 139
123 150
123 153
124 125
124 140
124 149
124 151
124 152
126 129
127 128
127 139
128 141
128 143
129 131
129 133
130 131
130 132
131 133
134 135
134 136
134 145
135 136
136 155
137 140
137 141
139 150
139 153
140 141
140 149
140 151
140 152
141 143
142 148
144 153
145 146
145 147
146 147
146 152
147 151
148 154
149 151
149 152
150 153
151 152
